n_machines = 10;
n_resources = 20;
n_jobs = 48;
horizon = 217;
LB = 23;
n_jobs_per_resource = [3, 2, 4, 1, 2, 4, 3, 1, 1, 3, 1, 3, 4, 1, 2, 2, 2, 4, 1, 4];
duration = [8, 7, 8, 3, 2, 7, 2, 3, 8, 1, 2, 7, 6, 2, 5, 9, 2, 5, 3, 2, 9, 4, 8, 3, 6, 1, 3, 4, 1, 1, 8, 1, 4, 6, 4, 3, 9, 7, 1, 1, 7, 1, 2, 8, 7, 5, 2, 9]